; benchmark generated from python API
(set-info :status unknown)
(declare-datatypes ((RealState 0)) (((RMk1 (rval1 Real)) (RMk2 (rval2 Real)))))
 (assert
 (forall ((|v17:0| Real) )(forall ((|v16:1| Real) )(forall ((|v15:2| Real) )(forall ((|v14:3| Real) )(forall ((|v13:4| Real) )(forall ((|v12:5| Real) )(exists ((|v11:6_st| RealState) (val!7506 Real) )(exists ((|v10:7_st| RealState) (val!7507 Real) )(exists ((|v9:8_st| RealState) (val!7508 Real) )(exists ((|v8:9_st| RealState) (val!7509 Real) )(exists ((|v7:10_st| RealState) (val!7510 Real) )(exists ((|v6:11_st| RealState) (val!7511 Real) )(forall ((|v5:12| Real) )(forall ((|v4:13| Real) )(forall ((|v3:14| Real) )(forall ((|v2:15| Real) )(forall ((|v1:16| Real) )(forall ((|v0:17| Real) )(let ((?x443 (+ (+ (+ (* 18.0 (rval2 |v6:11_st|)) (* (- 14.0) |v17:0|)) (* 5.0 |v16:1|)) (* (- 9.0) (rval2 |v7:10_st|)))))
 (let ((?x1574 (- 17.0)))
 (let ((?x2002 (* ?x1574 |v2:15|)))
 (let ((?x111 (- 11.0)))
 (let ((?x2763 (* ?x111 |v13:4|)))
 (let ((?x2339 (+ (+ (* (- 6.0) (rval2 |v10:7_st|)) (* (- 1.0) (rval2 |v11:6_st|))) ?x2763)))
 (let ((?x702 (rval2 |v6:11_st|)))
 (let ((?x1649 (- 5.0)))
 (let ((?x2266 (* ?x1649 ?x702)))
 (let (($x1678 (<= (+ (+ (+ (* ?x111 |v17:0|) (* 6.0 |v12:5|)) (* (- 1.0) |v17:0|)) ?x2266) ?x111)))
 (let ((?x148 (- 3.0)))
 (let ((?x529 (+ (+ (+ (* 15.0 |v0:17|) (* 8.0 |v0:17|)) (* (- 14.0) |v1:16|)) |v3:14|)))
 (let (($x1960 (<= ?x529 ?x148)))
 (let ((?x1417 (* ?x1649 |v4:13|)))
 (let ((?x2808 (+ (+ (+ (* 8.0 |v13:4|) (* (- 18.0) |v5:12|)) (* ?x1574 (rval2 |v11:6_st|))) ?x1417)))
 (let ((?x1385 (- 9.0)))
 (let ((?x2850 (* ?x1385 |v0:17|)))
 (let ((?x1987 (+ (+ (* (- 16.0) |v1:16|) (* 2.0 (rval2 |v11:6_st|))) (* (- 4.0) ?x702))))
 (let ((?x2933 (- 6.0)))
 (let ((?x130 (* 5.0 |v13:4|)))
 (let ((?x3086 (+ (+ (+ (* (- 1.0) |v5:12|) (* 11.0 |v4:13|)) (* 19.0 |v13:4|)) ?x130)))
 (let ((?x270 (* 15.0 |v3:14|)))
 (let (($x565 (<= (+ (+ (+ (* (- 8.0) |v0:17|) (* ?x1385 |v12:5|)) (* 10.0 |v13:4|)) ?x270) 13.0)))
 (let (($x2410 (or (and $x565 (<= ?x3086 ?x2933)) (or (<= (+ ?x1987 ?x2850) 10.0) (<= ?x2808 ?x148)))))
 (let (($x338 (and $x2410 (or (or $x1960 $x1678) (or (<= (+ ?x2339 ?x2002) 16.0) (<= ?x443 3.0))))))
 (let ((?x1974 (+ (+ (+ (* 3.0 ?x702) (* ?x2933 |v2:15|)) (* 14.0 |v12:5|)) (* ?x1649 |v17:0|))))
 (let ((?x1184 (- 7.0)))
 (let ((?x355 (* ?x1184 |v15:2|)))
 (let (($x244 (<= (+ (+ (+ ?x355 (* (- 18.0) |v0:17|)) (* 19.0 |v15:2|)) ?x355) 1.0)))
 (let ((?x1278 (* 5.0 |v16:1|)))
 (let ((?x330 (+ (+ (+ (* 2.0 (rval2 |v8:9_st|)) (* (- 16.0) |v0:17|)) (* 13.0 |v5:12|)) ?x1278)))
 (let ((?x2670 (* 14.0 |v12:5|)))
 (let ((?x2299 (- 1.0)))
 (let ((?x1581 (* ?x2299 |v14:3|)))
 (let ((?x1714 (+ (+ (+ (* 5.0 (rval2 |v11:6_st|)) (* 15.0 (rval2 |v7:10_st|))) ?x1581) ?x2670)))
 (let (($x924 (or (or (<= ?x1714 9.0) (<= ?x330 20.0)) (or $x244 (<= ?x1974 18.0)))))
 (let ((?x2614 (* 13.0 |v2:15|)))
 (let (($x3007 (<= (+ (+ (+ (* 18.0 |v16:1|) (* 9.0 |v13:4|)) (* ?x1184 |v2:15|)) ?x2614) ?x1184)))
 (let ((?x2684 (- 12.0)))
 (let ((?x2960 (* 19.0 |v12:5|)))
 (let ((?x1069 (rval2 |v10:7_st|)))
 (let ((?x2080 (* 16.0 ?x1069)))
 (let (($x1951 (<= (+ (+ (+ (* 5.0 |v1:16|) (* 15.0 (rval2 |v7:10_st|))) ?x2080) ?x2960) ?x2684)))
 (let ((?x3104 (- 2.0)))
 (let ((?x2042 (* ?x3104 |v0:17|)))
 (let ((?x309 (+ (+ (+ (* 12.0 |v13:4|) (* (- 15.0) (rval2 |v8:9_st|))) (* 3.0 |v5:12|)) ?x2042)))
 (let ((?x1213 (* 10.0 |v4:13|)))
 (let (($x409 (<= (+ (+ (+ (* ?x1385 ?x702) (* ?x1574 |v17:0|)) (* 9.0 |v15:2|)) ?x1213) ?x2299)))
 (let (($x1865 (<= (+ (+ (+ (* 18.0 |v2:15|) |v16:1|) (* ?x2299 |v0:17|)) (* ?x1649 |v15:2|)) 12.0)))
 (let ((?x1602 (- 14.0)))
 (let ((?x2271 (* ?x1574 |v4:13|)))
 (let (($x1806 (<= (+ (+ (+ (* 13.0 |v0:17|) (* ?x2933 |v12:5|)) (* 2.0 |v1:16|)) ?x2271) ?x1602)))
 (let ((?x1455 (- 15.0)))
 (let ((?x720 (+ (+ (+ (* ?x1574 (rval2 |v9:8_st|)) (* ?x111 |v15:2|)) (* ?x1385 ?x1069)) (* ?x2684 |v12:5|))))
 (let ((?x2214 (+ (+ (+ (* 2.0 |v14:3|) (* (- 18.0) |v4:13|)) (* 10.0 ?x702)) (* (- 10.0) |v13:4|))))
 (let ((?x1295 (- 8.0)))
 (let ((?x3336 (* ?x1574 |v17:0|)))
 (let ((?x3165 (+ (+ (+ (* 4.0 |v12:5|) (* 19.0 |v4:13|)) (* 17.0 (rval2 |v7:10_st|))) ?x3336)))
 (let ((?x1545 (* 6.0 ?x702)))
 (let ((?x2006 (+ (+ (+ (* 6.0 |v3:14|) (* 13.0 |v16:1|)) (* ?x1649 (rval2 |v8:9_st|))) ?x1545)))
 (let ((?x3296 (* 12.0 |v4:13|)))
 (let (($x1197 (<= (+ (+ (+ (* ?x111 |v12:5|) (* 15.0 |v12:5|)) (* (- 16.0) |v0:17|)) ?x3296) ?x111)))
 (let (($x268 (or (or (or $x1197 (<= ?x2006 5.0)) (and (<= ?x3165 ?x1295) (<= ?x2214 ?x1602))) (and (and (<= ?x720 ?x1455) $x1806) (or $x1865 $x409)))))
 (let ((?x2336 (+ (+ (+ (* 15.0 |v12:5|) (* ?x2684 ?x702)) (* 8.0 |v16:1|)) (* (- 20.0) ?x702))))
 (let ((?x3253 (* 12.0 |v17:0|)))
 (let (($x1183 (<= (+ (+ (+ (* ?x111 |v15:2|) (* 6.0 |v17:0|)) (* 9.0 |v12:5|)) ?x3253) 8.0)))
 (let ((?x2816 (+ (+ (+ (* 20.0 (rval2 |v11:6_st|)) (* 0.0 |v12:5|)) (* 20.0 ?x702)) (* ?x1184 |v13:4|))))
 (let ((?x174 (+ (+ (+ (* ?x1649 |v13:4|) (* ?x1295 |v5:12|)) (* 18.0 (rval2 |v11:6_st|))) (* 7.0 (rval2 |v9:8_st|)))))
 (let ((?x478 (- 10.0)))
 (let ((?x3321 (* ?x478 |v5:12|)))
 (let (($x3353 (<= (+ (+ (+ (* (- 18.0) |v0:17|) (* ?x2299 ?x702)) (* 7.0 |v5:12|)) ?x3321) 13.0)))
 (let ((?x422 (- 13.0)))
 (let ((?x212 (* ?x422 |v0:17|)))
 (let ((?x902 (+ (+ (+ (* 13.0 |v3:14|) (* ?x2684 |v4:13|)) (* ?x2684 (rval2 |v7:10_st|))) ?x212)))
 (let ((?x366 (- 20.0)))
 (let ((?x2276 (* 8.0 |v3:14|)))
 (let (($x1176 (<= (+ (+ (+ (* 11.0 |v2:15|) (* 2.0 |v2:15|)) (* ?x1602 |v5:12|)) ?x2276) ?x366)))
 (let ((?x187 (+ (+ (* (- 4.0) |v0:17|) (* ?x3104 (rval2 |v7:10_st|))) (* ?x1602 (rval2 |v7:10_st|)))))
 (let (($x694 (or (or (<= (+ ?x187 (* ?x111 (rval2 |v11:6_st|))) ?x1602) $x1176) (and (<= ?x902 20.0) $x3353))))
 (let (($x2949 (or $x694 (or (and (<= ?x174 ?x1455) (<= ?x2816 ?x1385)) (or $x1183 (<= ?x2336 ?x1184))))))
 (let (($x226 (and (and $x2949 $x268) (and (or (and (<= ?x309 7.0) (or $x1951 $x3007)) $x924) $x338))))
 (let ((?x1378 (* 13.0 |v3:14|)))
 (let (($x3393 (<= (+ (+ (+ (* 6.0 |v14:3|) (* ?x1184 (rval2 |v7:10_st|))) ?x2763) ?x1378) 4.0)))
 (let ((?x424 (+ (+ (+ (* 4.0 |v1:16|) (rval2 |v9:8_st|)) (* 16.0 (rval2 |v11:6_st|))) (* ?x366 (rval2 |v7:10_st|)))))
 (let ((?x2925 (+ (+ (+ (* ?x2933 |v4:13|) (* 6.0 |v1:16|)) (* 7.0 |v0:17|)) (* ?x2684 |v5:12|))))
 (let (($x3341 (<= ?x2925 6.0)))
 (let ((?x333 (- 4.0)))
 (let ((?x2417 (* 4.0 |v12:5|)))
 (let ((?x352 (+ (+ (+ (* ?x1602 |v16:1|) (* ?x2299 (rval2 |v8:9_st|))) (* 16.0 ?x702)) ?x2417)))
 (let ((?x1061 (+ (+ (+ (* ?x1295 (rval2 |v9:8_st|)) (* (- 16.0) |v14:3|)) (* 10.0 |v3:14|)) (* 0.0 ?x1069))))
 (let ((?x1306 (* 15.0 |v14:3|)))
 (let ((?x3179 (+ (+ (+ (* 19.0 |v3:14|) (* ?x2933 (rval2 |v9:8_st|))) (* 8.0 |v1:16|)) ?x1306)))
 (let ((?x297 (* 12.0 |v2:15|)))
 (let ((?x2586 (+ (+ (+ (* ?x2299 (rval2 |v9:8_st|)) (* 3.0 |v12:5|)) (* 17.0 |v17:0|)) ?x297)))
 (let (($x3176 (<= (+ (+ (+ (* ?x366 |v4:13|) ?x2042) ?x1417) ?x212) 11.0)))
 (let (($x2186 (and (or $x3176 (<= ?x2586 8.0)) (or (<= ?x3179 ?x2299) (<= ?x1061 2.0)))))
 (let (($x1905 (or $x2186 (and (or (<= ?x352 ?x333) $x3341) (and (<= ?x424 0.0) $x3393)))))
 (let ((?x1186 (* 5.0 ?x702)))
 (let ((?x2370 (+ (+ (+ (* 14.0 ?x702) (* (- 16.0) |v12:5|)) (* 12.0 |v13:4|)) ?x1186)))
 (let ((?x801 (+ (+ (+ (rval2 |v7:10_st|) (* 9.0 (rval2 |v9:8_st|))) (* (- 16.0) |v1:16|)) ?x2960)))
 (let ((?x1621 (rval2 |v8:9_st|)))
 (let ((?x3369 (* ?x366 ?x1621)))
 (let ((?x2862 (+ (+ (+ (* 8.0 (rval2 |v7:10_st|)) (* (- 18.0) |v14:3|)) ?x3369) (* ?x422 |v16:1|))))
 (let ((?x3400 (+ (+ (+ (* 15.0 |v2:15|) ?x297) (* 19.0 ?x702)) (* (- 19.0) |v13:4|))))
 (let ((?x2160 (* 16.0 |v0:17|)))
 (let (($x132 (<= (+ (+ (+ (* 16.0 |v16:1|) (* ?x1455 |v0:17|)) (* 13.0 ?x1621)) ?x2160) ?x1295)))
 (let ((?x85 (+ (+ (+ (* (- 19.0) |v4:13|) (* ?x1649 |v2:15|)) (* 7.0 ?x1069)) (* 3.0 (rval2 |v9:8_st|)))))
 (let (($x3055 (<= (+ (+ (+ ?x1069 (* ?x3104 ?x702)) (* ?x2933 (rval2 |v9:8_st|))) (* ?x422 |v14:3|)) 18.0)))
 (let (($x1039 (and (and (and $x3055 (<= ?x85 12.0)) (and $x132 (<= ?x3400 8.0))) (or (<= ?x2862 7.0) (and (<= ?x801 3.0) (<= ?x2370 8.0))))))
 (let ((?x3291 (+ (+ (+ (* ?x2299 |v4:13|) (* 18.0 |v5:12|)) (* (- 19.0) |v16:1|)) (* ?x3104 (rval2 |v9:8_st|)))))
 (let ((?x714 (- 16.0)))
 (let ((?x2893 (* ?x714 |v12:5|)))
 (let (($x2390 (<= (+ (+ (+ (* 13.0 |v16:1|) (* ?x333 |v3:14|)) (* ?x1602 |v15:2|)) ?x2893) 2.0)))
 (let ((?x1764 (+ (+ (* ?x2684 |v15:2|) (* 6.0 (rval2 |v7:10_st|))) (* (- 18.0) (rval2 |v7:10_st|)))))
 (let ((?x3162 (* 11.0 |v4:13|)))
 (let (($x933 (<= (+ (+ (+ (* ?x1184 |v4:13|) (* 4.0 |v14:3|)) (* 20.0 ?x1069)) ?x3162) ?x2684)))
 (let ((?x1522 (+ (+ (+ (* ?x1455 |v4:13|) (* ?x366 (rval2 |v9:8_st|))) (* 7.0 |v14:3|)) (* ?x148 |v15:2|))))
 (let ((?x968 (* 8.0 |v5:12|)))
 (let (($x1838 (<= (+ (+ (+ (* 18.0 ?x702) (* ?x1649 |v13:4|)) (* ?x1455 ?x1069)) ?x968) 0.0)))
 (let ((?x2323 (+ (+ (* ?x422 (rval2 |v9:8_st|)) (* ?x148 |v16:1|)) (* (- 18.0) (rval2 |v11:6_st|)))))
 (let (($x1558 (and (<= (+ ?x2323 (* ?x422 (rval2 |v7:10_st|))) 9.0) (and $x1838 (<= ?x1522 0.0)))))
 (let (($x1259 (and $x1558 (and (or $x933 (<= (+ ?x1764 ?x1581) ?x1574)) (or $x2390 (<= ?x3291 ?x1602))))))
 (let ((?x2641 (* 10.0 ?x702)))
 (let ((?x1936 (+ (+ (+ (* 3.0 ?x702) (* ?x1385 |v15:2|)) (* 8.0 (rval2 |v7:10_st|))) ?x2641)))
 (let ((?x834 (* ?x1649 ?x1621)))
 (let (($x1645 (<= (+ (+ (+ (* ?x714 |v2:15|) (* ?x2299 ?x1621)) (* 7.0 |v2:15|)) ?x834) ?x3104)))
 (let ((?x791 (+ (+ (+ (* 6.0 |v17:0|) (* ?x3104 |v4:13|)) (* ?x333 |v12:5|)) (* 0.0 (rval2 |v7:10_st|)))))
 (let (($x2592 (or (<= ?x791 11.0) (<= (+ (+ (+ (* 4.0 |v2:15|) ?x2266) (* ?x2933 |v14:3|)) ?x3369) 20.0))))
 (let ((?x2509 (* ?x333 |v4:13|)))
 (let ((?x1962 (+ (+ (+ (* ?x1455 |v17:0|) (* 18.0 ?x1069)) (* ?x1574 (rval2 |v7:10_st|))) ?x2509)))
 (let ((?x2523 (* ?x1574 |v3:14|)))
 (let ((?x2704 (+ (+ (+ (* 20.0 |v15:2|) (* (- 18.0) |v16:1|)) (* 16.0 (rval2 |v7:10_st|))) ?x2523)))
 (let ((?x84 (+ (+ (+ (* ?x1295 |v13:4|) (* 6.0 |v15:2|)) (* ?x714 ?x1069)) (* 13.0 (rval2 |v11:6_st|)))))
 (let ((?x1563 (* 10.0 |v0:17|)))
 (let (($x1132 (<= (+ (+ (+ (* 5.0 |v17:0|) (* 2.0 |v2:15|)) (* ?x2299 |v3:14|)) ?x1563) ?x3104)))
 (let (($x2596 (and (or (and $x1132 (<= ?x84 ?x1455)) (and (<= ?x2704 ?x1574) (<= ?x1962 ?x148))) (and $x2592 (and $x1645 (<= ?x1936 7.0))))))
 (let (($x785 (not (= |v6:11_st| (RMk1 val!7511)))))
 (let (($x1017 (not (= |v7:10_st| (RMk1 val!7510)))))
 (let (($x2912 (not (= |v8:9_st| (RMk1 val!7509)))))
 (let (($x2702 (not (= |v9:8_st| (RMk1 val!7508)))))
 (let (($x1978 (not (= |v10:7_st| (RMk1 val!7507)))))
 (let (($x891 (not (= |v11:6_st| (RMk1 val!7506)))))
 (and $x891 $x1978 $x2702 $x2912 $x1017 $x785 (or (or (or $x2596 $x1259) (and $x1039 $x1905)) $x226)))))))))))))))))))))))))))))))))))))))))))))))))))))))))))))))))))))))))))))))))))))))))))))))))))))))))))))))))))))))))))))))))))))))))))))))))
 )
 )
 )
 )
 )
 )
 )
 )
 )
 )
 )
 )
 )
 )
 )
 )
 )
 )
(check-sat)
